
Gurobi 9.5.0 (linux64) logging started Wed Feb  2 00:51:12 2022

Set parameter LogFile to value "/home/aniket/PhD/Plasmids-Optimization/exp/2021-06-14__iterative_MILP_edge_novelty/output/sample_108/1.1.1/nplasmids_1/MILP/m.log"
Set parameter TimeLimit to value 240
Set parameter MIPGap to value 0.05
Gurobi Optimizer version 9.5.0 build v9.5.0rc5 (linux64)
Thread count: 2 physical cores, 4 logical processors, using up to 4 threads
Optimize a model with 16174 rows, 5447 columns and 44997 nonzeros
Model fingerprint: 0x356889ed
Variable types: 1346 continuous, 4101 integer (3832 binary)
Coefficient statistics:
  Matrix range     [1e-02, 1e+06]
  Objective range  [1e-03, 1e+00]
  Bounds range     [1e+00, 1e+00]
  RHS range        [7e-01, 2e+05]
Presolve removed 14302 rows and 2558 columns
Presolve time: 0.07s
Presolved: 1872 rows, 2889 columns, 13469 nonzeros
Variable types: 515 continuous, 2374 integer (2374 binary)
Found heuristic solution: objective -0.8687486

Root relaxation: objective -8.023779e+00, 1906 iterations, 0.03 seconds (0.05 work units)

    Nodes    |    Current Node    |     Objective Bounds      |     Work
 Expl Unexpl |  Obj  Depth IntInf | Incumbent    BestBd   Gap | It/Node Time

     0     0   -8.02378    0   30   -0.86875   -8.02378   824%     -    0s
H    0     0                      -1.6435260   -8.02378   388%     -    0s
     0     0   -7.95311    0   28   -1.64353   -7.95311   384%     -    0s
H    0     0                      -5.1365790   -7.95311  54.8%     -    0s
     0     0   -7.94648    0   33   -5.13658   -7.94648  54.7%     -    0s
     0     0   -7.88996    0   28   -5.13658   -7.88996  53.6%     -    0s
     0     0   -7.87427    0   29   -5.13658   -7.87427  53.3%     -    0s
     0     0   -7.72188    0   33   -5.13658   -7.72188  50.3%     -    0s
H    0     0                      -7.0613279   -7.72188  9.35%     -    0s
     0     0   -7.72188    0   34   -7.06133   -7.72188  9.35%     -    0s
     0     0   -7.71964    0   34   -7.06133   -7.71964  9.32%     -    0s
H    0     0                      -7.0613279   -7.71964  9.32%     -    0s
     0     0   -7.71659    0   34   -7.06133   -7.71659  9.28%     -    0s
     0     0   -7.71634    0   32   -7.06133   -7.71634  9.28%     -    0s
H    0     0                      -7.1131357   -7.71634  8.48%     -    0s
     0     0   -7.71588    0   35   -7.11314   -7.71588  8.47%     -    0s
     0     0   -7.71587    0   35   -7.11314   -7.71587  8.47%     -    0s
     0     0   -7.71587    0   35   -7.11314   -7.71587  8.47%     -    0s
     0     0   -7.71587    0   35   -7.11314   -7.71587  8.47%     -    0s
     0     0   -7.71372    0   32   -7.11314   -7.71372  8.44%     -    0s
     0     0   -7.71371    0   32   -7.11314   -7.71371  8.44%     -    0s
     0     0   -7.71371    0   32   -7.11314   -7.71371  8.44%     -    0s
     0     0   -7.71371    0   32   -7.11314   -7.71371  8.44%     -    0s
     0     0   -7.71371    0   32   -7.11314   -7.71371  8.44%     -    0s
     0     0   -7.71371    0   30   -7.11314   -7.71371  8.44%     -    0s
     0     0   -7.71371    0   30   -7.11314   -7.71371  8.44%     -    0s
     0     2   -7.69857    0   30   -7.11314   -7.69857  8.23%     -    0s

Cutting planes:
  Gomory: 7
  MIR: 21
  StrongCG: 1
  Flow cover: 3
  RLT: 19

Explored 19 nodes (6898 simplex iterations) in 1.09 seconds (0.90 work units)
Thread count was 4 (of 4 available processors)

Solution count 6: -7.11314 -7.06133 -7.06133 ... -0.868749

Optimal solution found (tolerance 5.00e-02)
Best objective -7.113135704428e+00, best bound -7.165295261201e+00, gap 0.7333%

Gurobi 9.5.0 (linux64) logging started Wed Feb  2 00:51:13 2022

Set parameter LogFile to value "/home/aniket/PhD/Plasmids-Optimization/exp/2021-06-14__iterative_MILP_edge_novelty/output/sample_108/1.1.1/nplasmids_1/MILP/m.log"
Set parameter TimeLimit to value 240
Set parameter MIPGap to value 0.05
Gurobi Optimizer version 9.5.0 build v9.5.0rc5 (linux64)
Thread count: 2 physical cores, 4 logical processors, using up to 4 threads
Optimize a model with 15780 rows, 5313 columns and 44015 nonzeros
Model fingerprint: 0x8f9645d4
Variable types: 1306 continuous, 4007 integer (3746 binary)
Coefficient statistics:
  Matrix range     [1e-02, 1e+06]
  Objective range  [1e-03, 1e+00]
  Bounds range     [1e+00, 1e+00]
  RHS range        [7e-01, 2e+05]
Presolve removed 13976 rows and 2487 columns
Presolve time: 0.07s
Presolved: 1804 rows, 2826 columns, 13096 nonzeros
Variable types: 499 continuous, 2327 integer (2327 binary)
Found heuristic solution: objective -0.9415757

Root relaxation: objective -2.667225e+00, 1295 iterations, 0.03 seconds (0.04 work units)

    Nodes    |    Current Node    |     Objective Bounds      |     Work
 Expl Unexpl |  Obj  Depth IntInf | Incumbent    BestBd   Gap | It/Node Time

     0     0   -2.66723    0    4   -0.94158   -2.66723   183%     -    0s
H    0     0                      -1.6435260   -2.66723  62.3%     -    0s
H    0     0                      -2.6116406   -2.66723  2.13%     -    0s

Explored 1 nodes (1295 simplex iterations) in 0.12 seconds (0.14 work units)
Thread count was 4 (of 4 available processors)

Solution count 3: -2.61164 -1.64353 -0.941576 

Optimal solution found (tolerance 5.00e-02)
Best objective -2.611640556085e+00, best bound -2.667225301800e+00, gap 2.1283%
Gurobi Optimizer version 9.5.0 build v9.5.0rc5 (linux64)
Thread count: 2 physical cores, 4 logical processors, using up to 4 threads
Optimize a model with 15781 rows, 5313 columns and 44016 nonzeros
Model fingerprint: 0x1259a4ad
Variable types: 1306 continuous, 4007 integer (3746 binary)
Coefficient statistics:
  Matrix range     [1e-02, 1e+06]
  Objective range  [1e-03, 1e+00]
  Bounds range     [1e+00, 1e+00]
  RHS range        [7e-01, 2e+05]

MIP start from previous solve did not produce a new incumbent solution
MIP start from previous solve violates constraint circular by 1.000000000

Presolve removed 13976 rows and 2487 columns
Presolve time: 0.07s
Presolved: 1805 rows, 2826 columns, 13093 nonzeros
Variable types: 499 continuous, 2327 integer (2327 binary)
Found heuristic solution: objective -1.6435260

Root relaxation: objective -2.620054e+00, 1331 iterations, 0.03 seconds (0.04 work units)

    Nodes    |    Current Node    |     Objective Bounds      |     Work
 Expl Unexpl |  Obj  Depth IntInf | Incumbent    BestBd   Gap | It/Node Time

     0     0   -2.62005    0   39   -1.64353   -2.62005  59.4%     -    0s
     0     0   -2.62005    0   46   -1.64353   -2.62005  59.4%     -    0s
H    0     0                      -2.6116406   -2.62005  0.32%     -    0s

Cutting planes:
  Gomory: 2
  MIR: 17
  Flow cover: 20
  RLT: 18

Explored 1 nodes (3685 simplex iterations) in 0.26 seconds (0.25 work units)
Thread count was 4 (of 4 available processors)

Solution count 2: -2.61164 -1.64353 

Optimal solution found (tolerance 5.00e-02)
Best objective -2.611640556085e+00, best bound -2.620053508961e+00, gap 0.3221%
Gurobi Optimizer version 9.5.0 build v9.5.0rc5 (linux64)
Thread count: 2 physical cores, 4 logical processors, using up to 4 threads
Optimize a model with 15782 rows, 5313 columns and 44017 nonzeros
Model fingerprint: 0x5b1f91e5
Variable types: 1306 continuous, 4007 integer (3746 binary)
Coefficient statistics:
  Matrix range     [1e-02, 1e+06]
  Objective range  [1e-03, 1e+00]
  Bounds range     [1e+00, 1e+00]
  RHS range        [7e-01, 2e+05]

MIP start from previous solve did not produce a new incumbent solution
MIP start from previous solve violates constraint circular by 1.000000000

Presolve removed 13979 rows and 2488 columns
Presolve time: 0.07s
Presolved: 1803 rows, 2825 columns, 13088 nonzeros
Variable types: 499 continuous, 2326 integer (2326 binary)
Found heuristic solution: objective -0.9415757

Root relaxation: objective -1.861274e+00, 1568 iterations, 0.03 seconds (0.05 work units)

    Nodes    |    Current Node    |     Objective Bounds      |     Work
 Expl Unexpl |  Obj  Depth IntInf | Incumbent    BestBd   Gap | It/Node Time

     0     0   -1.86127    0    6   -0.94158   -1.86127  97.7%     -    0s
H    0     0                      -1.6435260   -1.86127  13.2%     -    0s
H    0     0                      -1.8454623   -1.86127  0.86%     -    0s

Explored 1 nodes (1568 simplex iterations) in 0.13 seconds (0.15 work units)
Thread count was 4 (of 4 available processors)

Solution count 3: -1.84546 -1.64353 -0.941576 

Optimal solution found (tolerance 5.00e-02)
Best objective -1.845462296786e+00, best bound -1.861274206393e+00, gap 0.8568%

Gurobi 9.5.0 (linux64) logging started Wed Feb  2 00:51:14 2022

Set parameter LogFile to value "/home/aniket/PhD/Plasmids-Optimization/exp/2021-06-14__iterative_MILP_edge_novelty/output/sample_108/1.1.1/nplasmids_1/MILP/m.log"
Set parameter TimeLimit to value 240
Set parameter MIPGap to value 0.05
Gurobi Optimizer version 9.5.0 build v9.5.0rc5 (linux64)
Thread count: 2 physical cores, 4 logical processors, using up to 4 threads
Optimize a model with 15704 rows, 5287 columns and 43867 nonzeros
Model fingerprint: 0xda0cb13c
Variable types: 1296 continuous, 3991 integer (3732 binary)
Coefficient statistics:
  Matrix range     [1e-02, 1e+06]
  Objective range  [1e-03, 1e+00]
  Bounds range     [1e+00, 1e+00]
  RHS range        [7e-01, 2e+05]
Presolve removed 13912 rows and 2468 columns
Presolve time: 0.06s
Presolved: 1792 rows, 2819 columns, 13053 nonzeros
Variable types: 495 continuous, 2324 integer (2324 binary)
Found heuristic solution: objective -0.9415757

Root relaxation: objective -1.761207e+00, 1289 iterations, 0.02 seconds (0.03 work units)

    Nodes    |    Current Node    |     Objective Bounds      |     Work
 Expl Unexpl |  Obj  Depth IntInf | Incumbent    BestBd   Gap | It/Node Time

     0     0   -1.76121    0    6   -0.94158   -1.76121  87.0%     -    0s
H    0     0                      -1.6435260   -1.76121  7.16%     -    0s
     0     0   -1.73791    0    6   -1.64353   -1.73791  5.74%     -    0s
H    0     0                      -1.6631872   -1.73791  4.49%     -    0s

Cutting planes:
  MIR: 2
  Flow cover: 1
  RLT: 1

Explored 1 nodes (1297 simplex iterations) in 0.17 seconds (0.18 work units)
Thread count was 4 (of 4 available processors)

Solution count 3: -1.66319 -1.64353 -0.941576 

Optimal solution found (tolerance 5.00e-02)
Best objective -1.663187154619e+00, best bound -1.737910149107e+00, gap 4.4928%
Gurobi Optimizer version 9.5.0 build v9.5.0rc5 (linux64)
Thread count: 2 physical cores, 4 logical processors, using up to 4 threads
Optimize a model with 15705 rows, 5287 columns and 43868 nonzeros
Model fingerprint: 0x1325e706
Variable types: 1296 continuous, 3991 integer (3732 binary)
Coefficient statistics:
  Matrix range     [1e-02, 1e+06]
  Objective range  [1e-03, 1e+00]
  Bounds range     [1e+00, 1e+00]
  RHS range        [7e-01, 2e+05]

MIP start from previous solve did not produce a new incumbent solution
MIP start from previous solve violates constraint circular by 1.000000000

Presolve removed 13912 rows and 2468 columns
Presolve time: 0.07s
Presolved: 1793 rows, 2819 columns, 13049 nonzeros
Variable types: 495 continuous, 2324 integer (2324 binary)
Found heuristic solution: objective -1.6435260

Root relaxation: objective -1.749291e+00, 1294 iterations, 0.02 seconds (0.04 work units)

    Nodes    |    Current Node    |     Objective Bounds      |     Work
 Expl Unexpl |  Obj  Depth IntInf | Incumbent    BestBd   Gap | It/Node Time

     0     0   -1.74929    0    2   -1.64353   -1.74929  6.44%     -    0s
     0     0   -1.71248    0    2   -1.64353   -1.71248  4.20%     -    0s

Cutting planes:
  Flow cover: 1
  RLT: 2

Explored 1 nodes (1307 simplex iterations) in 0.15 seconds (0.17 work units)
Thread count was 4 (of 4 available processors)

Solution count 1: -1.64353 

Optimal solution found (tolerance 5.00e-02)
Best objective -1.643526010027e+00, best bound -1.712481567888e+00, gap 4.1956%

Gurobi 9.5.0 (linux64) logging started Wed Feb  2 00:51:14 2022

Set parameter LogFile to value "/home/aniket/PhD/Plasmids-Optimization/exp/2021-06-14__iterative_MILP_edge_novelty/output/sample_108/1.1.1/nplasmids_1/MILP/m.log"
Set parameter TimeLimit to value 240
Set parameter MIPGap to value 0.05
Gurobi Optimizer version 9.5.0 build v9.5.0rc5 (linux64)
Thread count: 2 physical cores, 4 logical processors, using up to 4 threads
Optimize a model with 15622 rows, 5259 columns and 43693 nonzeros
Model fingerprint: 0xf11b3229
Variable types: 1286 continuous, 3973 integer (3716 binary)
Coefficient statistics:
  Matrix range     [1e-02, 1e+06]
  Objective range  [1e-03, 1e+00]
  Bounds range     [1e+00, 1e+00]
  RHS range        [7e-01, 2e+05]
Presolve removed 13843 rows and 2448 columns
Presolve time: 0.06s
Presolved: 1779 rows, 2811 columns, 12999 nonzeros
Variable types: 491 continuous, 2320 integer (2320 binary)
Found heuristic solution: objective -0.9415757

Root relaxation: cutoff, 1414 iterations, 0.03 seconds (0.04 work units)

    Nodes    |    Current Node    |     Objective Bounds      |     Work
 Expl Unexpl |  Obj  Depth IntInf | Incumbent    BestBd   Gap | It/Node Time

     0     0     cutoff    0        -0.94158   -0.94158  0.00%     -    0s

Explored 1 nodes (1414 simplex iterations) in 0.11 seconds (0.13 work units)
Thread count was 4 (of 4 available processors)

Solution count 1: -0.941576 

Optimal solution found (tolerance 5.00e-02)
Best objective -9.415757253127e-01, best bound -9.415757253127e-01, gap 0.0000%

Gurobi 9.5.0 (linux64) logging started Wed Feb  2 00:51:15 2022

Set parameter LogFile to value "/home/aniket/PhD/Plasmids-Optimization/exp/2021-06-14__iterative_MILP_edge_novelty/output/sample_108/1.1.1/nplasmids_1/MILP/m.log"
Set parameter TimeLimit to value 240
Set parameter MIPGap to value 0.05
Gurobi Optimizer version 9.5.0 build v9.5.0rc5 (linux64)
Thread count: 2 physical cores, 4 logical processors, using up to 4 threads
Optimize a model with 15587 rows, 5247 columns and 43632 nonzeros
Model fingerprint: 0xb7fe3766
Variable types: 1281 continuous, 3966 integer (3710 binary)
Coefficient statistics:
  Matrix range     [1e-02, 1e+06]
  Objective range  [1e-03, 1e+00]
  Bounds range     [1e+00, 1e+00]
  RHS range        [7e-01, 2e+05]
Presolve removed 13813 rows and 2439 columns
Presolve time: 0.06s
Presolved: 1774 rows, 2808 columns, 12979 nonzeros
Variable types: 489 continuous, 2319 integer (2319 binary)
Found heuristic solution: objective -0.8907186

Root relaxation: cutoff, 1308 iterations, 0.03 seconds (0.04 work units)

    Nodes    |    Current Node    |     Objective Bounds      |     Work
 Expl Unexpl |  Obj  Depth IntInf | Incumbent    BestBd   Gap | It/Node Time

     0     0     cutoff    0        -0.89072   -0.89072  0.00%     -    0s

Explored 1 nodes (1308 simplex iterations) in 0.11 seconds (0.13 work units)
Thread count was 4 (of 4 available processors)

Solution count 1: -0.890719 

Optimal solution found (tolerance 5.00e-02)
Best objective -8.907185628743e-01, best bound -8.907185628743e-01, gap 0.0000%

Gurobi 9.5.0 (linux64) logging started Wed Feb  2 00:51:15 2022

Set parameter LogFile to value "/home/aniket/PhD/Plasmids-Optimization/exp/2021-06-14__iterative_MILP_edge_novelty/output/sample_108/1.1.1/nplasmids_1/MILP/m.log"
Set parameter TimeLimit to value 240
Set parameter MIPGap to value 0.05
Gurobi Optimizer version 9.5.0 build v9.5.0rc5 (linux64)
Thread count: 2 physical cores, 4 logical processors, using up to 4 threads
Optimize a model with 15522 rows, 5225 columns and 43441 nonzeros
Model fingerprint: 0x7a1ff664
Variable types: 1276 continuous, 3949 integer (3694 binary)
Coefficient statistics:
  Matrix range     [1e-02, 1e+06]
  Objective range  [1e-03, 1e+00]
  Bounds range     [1e+00, 1e+00]
  RHS range        [7e-01, 2e+05]
Presolve removed 13754 rows and 2424 columns
Presolve time: 0.06s
Presolved: 1768 rows, 2801 columns, 12944 nonzeros
Variable types: 487 continuous, 2314 integer (2314 binary)
Found heuristic solution: objective -0.8907186

Root relaxation: cutoff, 1252 iterations, 0.03 seconds (0.04 work units)

    Nodes    |    Current Node    |     Objective Bounds      |     Work
 Expl Unexpl |  Obj  Depth IntInf | Incumbent    BestBd   Gap | It/Node Time

     0     0     cutoff    0        -0.89072   -0.89072  0.00%     -    0s

Explored 1 nodes (1252 simplex iterations) in 0.11 seconds (0.13 work units)
Thread count was 4 (of 4 available processors)

Solution count 1: -0.890719 

Optimal solution found (tolerance 5.00e-02)
Best objective -8.907185628743e-01, best bound -8.907185628743e-01, gap 0.0000%

Gurobi 9.5.0 (linux64) logging started Wed Feb  2 00:51:15 2022

Set parameter LogFile to value "/home/aniket/PhD/Plasmids-Optimization/exp/2021-06-14__iterative_MILP_edge_novelty/output/sample_108/1.1.1/nplasmids_1/MILP/m.log"
Set parameter TimeLimit to value 240
Set parameter MIPGap to value 0.05
Gurobi Optimizer version 9.5.0 build v9.5.0rc5 (linux64)
Thread count: 2 physical cores, 4 logical processors, using up to 4 threads
Optimize a model with 15457 rows, 5203 columns and 43250 nonzeros
Model fingerprint: 0x43e2ae2e
Variable types: 1271 continuous, 3932 integer (3678 binary)
Coefficient statistics:
  Matrix range     [1e-02, 1e+06]
  Objective range  [1e-03, 1e+00]
  Bounds range     [1e+00, 1e+00]
  RHS range        [7e-01, 2e+05]
Presolve removed 13695 rows and 2409 columns
Presolve time: 0.06s
Presolved: 1762 rows, 2794 columns, 12909 nonzeros
Variable types: 485 continuous, 2309 integer (2309 binary)
Found heuristic solution: objective -0.8907186

Root relaxation: cutoff, 1024 iterations, 0.03 seconds (0.04 work units)

    Nodes    |    Current Node    |     Objective Bounds      |     Work
 Expl Unexpl |  Obj  Depth IntInf | Incumbent    BestBd   Gap | It/Node Time

     0     0     cutoff    0        -0.89072   -0.89072  0.00%     -    0s

Explored 1 nodes (1024 simplex iterations) in 0.11 seconds (0.13 work units)
Thread count was 4 (of 4 available processors)

Solution count 1: -0.890719 

Optimal solution found (tolerance 5.00e-02)
Best objective -8.907185628743e-01, best bound -8.907185628743e-01, gap 0.0000%

Gurobi 9.5.0 (linux64) logging started Wed Feb  2 00:51:16 2022

Set parameter LogFile to value "/home/aniket/PhD/Plasmids-Optimization/exp/2021-06-14__iterative_MILP_edge_novelty/output/sample_108/1.1.1/nplasmids_1/MILP/m.log"
Set parameter TimeLimit to value 240
Set parameter MIPGap to value 0.05
Gurobi Optimizer version 9.5.0 build v9.5.0rc5 (linux64)
Thread count: 2 physical cores, 4 logical processors, using up to 4 threads
Optimize a model with 15392 rows, 5181 columns and 43059 nonzeros
Model fingerprint: 0x35ec9c67
Variable types: 1266 continuous, 3915 integer (3662 binary)
Coefficient statistics:
  Matrix range     [1e-02, 1e+06]
  Objective range  [1e-03, 1e+00]
  Bounds range     [1e+00, 1e+00]
  RHS range        [7e-01, 2e+05]
Presolve removed 13636 rows and 2394 columns
Presolve time: 0.06s
Presolved: 1756 rows, 2787 columns, 12874 nonzeros
Variable types: 483 continuous, 2304 integer (2304 binary)
Found heuristic solution: objective -0.8907186

Root relaxation: cutoff, 1039 iterations, 0.03 seconds (0.05 work units)

    Nodes    |    Current Node    |     Objective Bounds      |     Work
 Expl Unexpl |  Obj  Depth IntInf | Incumbent    BestBd   Gap | It/Node Time

     0     0     cutoff    0        -0.89072   -0.89072  0.00%     -    0s

Explored 1 nodes (1039 simplex iterations) in 0.11 seconds (0.14 work units)
Thread count was 4 (of 4 available processors)

Solution count 1: -0.890719 

Optimal solution found (tolerance 5.00e-02)
Best objective -8.907185628743e-01, best bound -8.907185628743e-01, gap 0.0000%

Gurobi 9.5.0 (linux64) logging started Wed Feb  2 00:51:16 2022

Set parameter LogFile to value "/home/aniket/PhD/Plasmids-Optimization/exp/2021-06-14__iterative_MILP_edge_novelty/output/sample_108/1.1.1/nplasmids_1/MILP/m.log"
Set parameter TimeLimit to value 240
Set parameter MIPGap to value 0.05
Gurobi Optimizer version 9.5.0 build v9.5.0rc5 (linux64)
Thread count: 2 physical cores, 4 logical processors, using up to 4 threads
Optimize a model with 15327 rows, 5159 columns and 42868 nonzeros
Model fingerprint: 0x145406fb
Variable types: 1261 continuous, 3898 integer (3646 binary)
Coefficient statistics:
  Matrix range     [1e-02, 1e+06]
  Objective range  [1e-03, 1e+00]
  Bounds range     [1e+00, 1e+00]
  RHS range        [7e-01, 2e+05]
Presolve removed 13582 rows and 2381 columns
Presolve time: 0.06s
Presolved: 1745 rows, 2778 columns, 12821 nonzeros
Variable types: 480 continuous, 2298 integer (2298 binary)
Found heuristic solution: objective -0.8907186

Explored 0 nodes (0 simplex iterations) in 0.07 seconds (0.09 work units)
Thread count was 4 (of 4 available processors)

Solution count 1: -0.890719 

Optimal solution found (tolerance 5.00e-02)
Best objective -8.907185628743e-01, best bound -8.907185628743e-01, gap 0.0000%

Gurobi 9.5.0 (linux64) logging started Wed Feb  2 00:51:16 2022

Set parameter LogFile to value "/home/aniket/PhD/Plasmids-Optimization/exp/2021-06-14__iterative_MILP_edge_novelty/output/sample_108/1.1.1/nplasmids_1/MILP/m.log"
Set parameter TimeLimit to value 240
Set parameter MIPGap to value 0.05
Gurobi Optimizer version 9.5.0 build v9.5.0rc5 (linux64)
Thread count: 2 physical cores, 4 logical processors, using up to 4 threads
Optimize a model with 15262 rows, 5137 columns and 42677 nonzeros
Model fingerprint: 0x875a4be8
Variable types: 1256 continuous, 3881 integer (3630 binary)
Coefficient statistics:
  Matrix range     [1e-02, 1e+06]
  Objective range  [1e-03, 1e+00]
  Bounds range     [1e+00, 1e+00]
  RHS range        [7e-01, 2e+05]
Presolve removed 5731 rows and 772 columns
Presolve time: 0.00s

Explored 0 nodes (0 simplex iterations) in 0.01 seconds (0.01 work units)
Thread count was 1 (of 4 available processors)

Solution count 0

Model is infeasible
Best objective -, best bound -, gap -

Computing Irreducible Inconsistent Subsystem (IIS)...

           Constraints          |            Bounds           |  Runtime
      Min       Max     Guess   |   Min       Max     Guess   |
--------------------------------------------------------------------------
        0     12085         -         0      1507         -           0s
      504       504         -         0         0         -           2s

IIS computed: 504 constraints, 0 bounds
IIS runtime: 1.50 seconds (0.65 work units)
Warning: linear constraint 0 and linear constraint 1 have the same name "counted_length"
